
(set-logic ALL) 

(declare-datatype MyList ((Nil) (Cons (head Real) (tail MyList)) )) 
(declare-fun l0 () MyList) 
(declare-fun l1 () MyList) 
(declare-fun l2 () MyList) 
(declare-fun l3 () MyList) 
(declare-fun i0 () Real) 
(declare-fun i1 () Real) 
(assert (or (is-Nil l0) (is-Nil Nil) (= l2 Nil) (= l3 Nil)) )
(assert (is-Cons l0) )
(assert (or (= l0 l0) (is-Nil l2)) )
(assert (is-Cons Nil) )
(assert (or (is-Cons l0) (= l0 Nil) (= l0 Nil) (= l0 Nil)) )
(assert (not (= l1 l2)) )
(assert (is-Nil l3) )
(assert (is-Nil Nil) )
(check-sat)
